;; Category : Email validation
;; Benchmark: email_alpha_start vs email_length_limit
;; R1: Local must start with letter
;; R2: Local part limited to 1-64 chars
;; Status   : sat
;;
;; Equivalence check: unsat ⟺ L(R1) = L(R2)

(set-info :smt-lib-version 2.6)
(set-info :category "email")
(set-info :status sat)
(set-logic QF_S)

(declare-const x String)

(assert
  (str.in_re x
    (re.union (re.inter (re.++ (re.union (re.range "a" "z") (re.range "A" "Z")) (re.* (re.union (re.union (re.range "a" "z") (re.range "A" "Z") (re.range "0" "9")) (str.to_re ".") (str.to_re "_") (str.to_re "%") (str.to_re "-") (str.to_re "+"))) (str.to_re "@") (re.+ (re.union (re.union (re.range "a" "z") (re.range "A" "Z") (re.range "0" "9")) (str.to_re ".") (str.to_re "-"))) (str.to_re ".") ((_ re.loop 2 6) (re.union (re.range "a" "z") (re.range "A" "Z")))) (re.comp (re.++ ((_ re.loop 1 64) (re.union (re.union (re.range "a" "z") (re.range "A" "Z") (re.range "0" "9")) (str.to_re ".") (str.to_re "_") (str.to_re "%") (str.to_re "-") (str.to_re "+"))) (str.to_re "@") (re.+ (re.union (re.union (re.range "a" "z") (re.range "A" "Z") (re.range "0" "9")) (str.to_re ".") (str.to_re "-"))) (str.to_re ".") ((_ re.loop 2 6) (re.union (re.range "a" "z") (re.range "A" "Z")))))) (re.inter (re.comp (re.++ (re.union (re.range "a" "z") (re.range "A" "Z")) (re.* (re.union (re.union (re.range "a" "z") (re.range "A" "Z") (re.range "0" "9")) (str.to_re ".") (str.to_re "_") (str.to_re "%") (str.to_re "-") (str.to_re "+"))) (str.to_re "@") (re.+ (re.union (re.union (re.range "a" "z") (re.range "A" "Z") (re.range "0" "9")) (str.to_re ".") (str.to_re "-"))) (str.to_re ".") ((_ re.loop 2 6) (re.union (re.range "a" "z") (re.range "A" "Z"))))) (re.++ ((_ re.loop 1 64) (re.union (re.union (re.range "a" "z") (re.range "A" "Z") (re.range "0" "9")) (str.to_re ".") (str.to_re "_") (str.to_re "%") (str.to_re "-") (str.to_re "+"))) (str.to_re "@") (re.+ (re.union (re.union (re.range "a" "z") (re.range "A" "Z") (re.range "0" "9")) (str.to_re ".") (str.to_re "-"))) (str.to_re ".") ((_ re.loop 2 6) (re.union (re.range "a" "z") (re.range "A" "Z"))))))))

(check-sat)
(exit)
